100
128
33
12
34
38
6
4
1
14
12
7
6
4
4
17
34
9
8
36
20
10
63
14
43
16
11
14
22
7
36
5
16
17
19
18
16
9
22
22
7
26
17
47
27
20
34
12
34
40
38
9
9
8
50
35
11
32
30
58
14
2
24
35
42
61
1
23
62
32
51
32
34
11
33
62
33
4
2
38
1
58
64
64
31
40
16
20
64
64
52
10
55
63
62
34
32
31
46
64
64
51